NAME : a280.tsp
TYPE : TOUR
DIMENSION : 280
TOUR_LENGTH : 2897.434031726285
TOUR_SECTION
1
280
3
279
278
4
277
276
275
274
273
272
271
16
17
18
19
20
131
132
133
134
135
270
269
268
267
136
137
138
139
149
150
178
179
148
141
140
266
265
264
263
262
261
260
259
258
249
248
244
243
2
242
241
240
239
238
237
236
235
234
233
232
231
246
245
247
250
251
230
229
228
227
226
225
224
223
222
221
220
219
218
217
216
215
214
211
213
212
207
210
209
252
255
256
257
254
253
208
206
205
204
203
202
200
144
143
142
147
146
145
199
198
201
196
197
195
194
193
192
191
190
189
188
187
186
185
184
183
182
181
180
176
177
151
158
159
160
175
161
162
163
164
165
166
167
168
169
170
172
171
173
174
107
106
105
104
108
109
88
87
86
85
84
83
82
89
90
91
103
102
101
100
99
92
98
97
96
95
94
93
80
81
79
78
77
75
76
74
73
72
71
70
67
69
68
64
66
65
63
58
57
56
45
46
55
54
47
48
53
52
51
50
49
39
38
37
36
35
40
41
42
43
44
59
60
61
62
118
117
116
115
114
113
112
110
111
157
119
120
121
122
123
124
152
156
153
155
154
130
21
128
129
127
126
125
34
33
32
31
30
29
28
27
26
22
25
23
24
14
15
13
12
11
10
8
9
6
5
7
-1
